p cnf 12 22
12 11 -10 0
-12 -9 4 0
12 -5 1 0
-12 -4 -3 0
-11 10 3 0
11 -9 3 0
-11 -8 5 0
-11 6 -5 0
11 6 5 0
-11 -6 3 0
-11 -3 -2 0
10 7 5 0
10 7 -1 0
-10 4 -2 0
9 8 -4 0
-9 -7 -5 0
9 6 -1 0
-9 -5 -1 0
-9 3 -2 0
9 2 1 0
-8 -4 -2 0
7 -6 4 0
